(set-info :source |printed by MathSAT|)
(declare-fun |.x{18}| () Int)
(declare-fun |.x{19}| () Int)
(declare-fun |.x{20}| () Int)
(declare-fun |.y{2}| () Int)
(declare-fun |.loc{3}| () Bool)
(declare-fun |.loc{5}| () Bool)
(declare-fun |.loc{4}| () Bool)
(declare-fun |.loc{6}| () Bool)
(define-fun .def_18 () Bool (! |.loc{4}| :next |.loc{6}|))
(define-fun .def_98 () Bool (not .def_18))
(define-fun .def_16 () Bool (! |.loc{3}| :next |.loc{5}|))
(define-fun .def_107 () Bool (and .def_16 .def_98))
(define-fun .def_10 ((i_3 Int)) Int (! i_3 :next |.x{19}|))
(define-fun .def_105 ((i_3 Int)) Bool (= (.def_10 i_3) 0))
(define-fun .def_12 ((k_4 Int)) Int (! k_4 :next |.x{20}|))
(define-fun .def_8 ((n_4 Int)) Int (! n_4 :next |.x{18}|))
(define-fun .def_102 ((k_4 Int) (n_4 Int)) Bool (<= (.def_8 n_4) (.def_12 k_4)))
(define-fun .def_103 ((k_4 Int) (n_4 Int)) Bool (not (.def_102 k_4 n_4)))
(define-fun .def_101 ((k_4 Int)) Bool (<= 0 (.def_12 k_4)))
(define-fun .def_104 ((k_4 Int) (n_4 Int)) Bool (and (.def_101 k_4) (.def_103 k_4 n_4)))
(define-fun .def_106 ((i_3 Int) (k_4 Int) (n_4 Int)) Bool (and (.def_104 k_4 n_4) (.def_105 i_3)))
(define-fun .def_108 ((i_3 Int) (k_4 Int) (n_4 Int)) Bool (! (and (.def_106 i_3 k_4 n_4) .def_107) :init true))
(define-fun .def_108 ((i_3 Int) (k_4 Int) (n_4 Int)) Bool (.def_108 i_3 k_4 n_4))
(define-fun .def_94 ((n_4 Int)) Bool (= (.def_8 n_4) |.x{18}|))
(define-fun .def_87 ((k_4 Int)) Bool (= |.x{19}| (.def_12 k_4)))
(define-fun .def_14 ((ak_4 Int)) Int (! ak_4 :next |.y{2}|))
(define-fun .def_86 ((ak_4 Int)) Bool (= |.x{20}| (.def_14 ak_4)))
(define-fun .def_88 ((ak_4 Int) (k_4 Int)) Bool (and (.def_86 ak_4) (.def_87 k_4)))
(define-fun .def_43 ((i_3 Int) (n_4 Int)) Bool (<= (.def_8 n_4) (.def_10 i_3)))
(define-fun .def_89 ((ak_4 Int) (i_3 Int) (k_4 Int) (n_4 Int)) Bool (and (.def_43 i_3 n_4) (.def_88 ak_4 k_4)))
(define-fun .def_90 ((ak_4 Int) (i_3 Int) (k_4 Int) (n_4 Int)) Bool (and .def_16 (.def_89 ak_4 i_3 k_4 n_4)))
(define-fun .def_91 ((ak_4 Int) (i_3 Int) (k_4 Int) (n_4 Int)) Bool (and |.loc{6}| (.def_90 ak_4 i_3 k_4 n_4)))
(define-fun .def_46 () Bool (not |.loc{5}|))
(define-fun .def_92 ((ak_4 Int) (i_3 Int) (k_4 Int) (n_4 Int)) Bool (and .def_46 (.def_91 ak_4 i_3 k_4 n_4)))
(define-fun .def_81 () Int (* (- 1) |.x{19}|))
(define-fun .def_82 ((i_3 Int)) Int (+ (.def_10 i_3) .def_81))
(define-fun .def_83 ((i_3 Int)) Bool (= (.def_82 i_3) (- 1)))
(define-fun .def_78 ((k_4 Int)) Bool (= (.def_12 k_4) |.x{20}|))
(define-fun .def_76 ((ak_4 Int)) Bool (= (.def_14 ak_4) |.y{2}|))
(define-fun .def_74 () Bool (not .def_16))
(define-fun .def_22 () Bool (not |.loc{6}|))
(define-fun .def_75 () Bool (and .def_22 .def_74))
(define-fun .def_77 ((ak_4 Int)) Bool (and .def_75 (.def_76 ak_4)))
(define-fun .def_79 ((ak_4 Int) (k_4 Int)) Bool (and (.def_77 ak_4) (.def_78 k_4)))
(define-fun .def_84 ((ak_4 Int) (i_3 Int) (k_4 Int)) Bool (and (.def_79 ak_4 k_4) (.def_83 i_3)))
(define-fun .def_85 ((ak_4 Int) (i_3 Int) (k_4 Int)) Bool (and |.loc{5}| (.def_84 ak_4 i_3 k_4)))
(define-fun .def_93 ((ak_4 Int) (i_3 Int) (k_4 Int) (n_4 Int)) Bool (or (.def_85 ak_4 i_3 k_4) (.def_92 ak_4 i_3 k_4 n_4)))
(define-fun .def_95 ((ak_4 Int) (i_3 Int) (k_4 Int) (n_4 Int)) Bool (and (.def_93 ak_4 i_3 k_4 n_4) (.def_94 n_4)))
(define-fun .def_70 ((n_1 Int)) Bool (= |.x{18}| n_1))
(define-fun .def_68 ((i_0 Int)) Bool (= |.x{19}| i_0))
(define-fun .def_66 ((k_1 Int)) Bool (= |.x{20}| k_1))
(define-fun .def_64 ((ak_1 Int)) Bool (= |.y{2}| ak_1))
(define-fun .def_61 ((ak_4 Int) (ak_1 Int)) Bool (= (.def_14 ak_4) ak_1))
(define-fun .def_58 ((k_1 Int) (k_4 Int)) Bool (= (.def_12 k_4) k_1))
(define-fun .def_55 ((i_3 Int) (i_0 Int)) Bool (= (.def_10 i_3) i_0))
(define-fun .def_52 ((k_1 Int) (i_0 Int)) Bool (= k_1 i_0))
(define-fun .def_53 ((k_1 Int) (i_0 Int)) Bool (not (.def_52 k_1 i_0)))
(define-fun .def_49 ((n_1 Int) (n_4 Int)) Bool (= (.def_8 n_4) n_1))
(define-fun .def_54 ((k_1 Int) (n_1 Int) (i_0 Int) (n_4 Int)) Bool (and (.def_49 n_1 n_4) (.def_53 k_1 i_0)))
(define-fun .def_56 ((k_1 Int) (n_1 Int) (i_3 Int) (i_0 Int) (n_4 Int)) Bool (and (.def_54 k_1 n_1 i_0 n_4) (.def_55 i_3 i_0)))
(define-fun .def_57 ((k_1 Int) (n_1 Int) (i_3 Int) (i_0 Int) (n_4 Int)) Bool (and .def_22 (.def_56 k_1 n_1 i_3 i_0 n_4)))
(define-fun .def_59 ((k_1 Int) (n_1 Int) (i_3 Int) (i_0 Int) (k_4 Int) (n_4 Int)) Bool (and (.def_57 k_1 n_1 i_3 i_0 n_4) (.def_58 k_1 k_4)))
(define-fun .def_62 ((k_1 Int) (n_1 Int) (ak_4 Int) (ak_1 Int) (i_3 Int) (i_0 Int) (k_4 Int) (n_4 Int)) Bool (and (.def_59 k_1 n_1 i_3 i_0 k_4 n_4) (.def_61 ak_4 ak_1)))
(define-fun .def_63 ((k_1 Int) (n_1 Int) (ak_4 Int) (i_3 Int) (ak_1 Int) (i_0 Int) (k_4 Int) (n_4 Int)) Bool (and .def_16 (.def_62 k_1 n_1 ak_4 ak_1 i_3 i_0 k_4 n_4)))
(define-fun .def_65 ((k_1 Int) (n_1 Int) (ak_4 Int) (ak_1 Int) (i_3 Int) (i_0 Int) (k_4 Int) (n_4 Int)) Bool (and (.def_63 k_1 n_1 ak_4 i_3 ak_1 i_0 k_4 n_4) (.def_64 ak_1)))
(define-fun .def_67 ((k_1 Int) (n_1 Int) (ak_4 Int) (i_3 Int) (ak_1 Int) (i_0 Int) (k_4 Int) (n_4 Int)) Bool (and (.def_65 k_1 n_1 ak_4 ak_1 i_3 i_0 k_4 n_4) (.def_66 k_1)))
(define-fun .def_69 ((k_1 Int) (n_1 Int) (ak_4 Int) (ak_1 Int) (i_3 Int) (i_0 Int) (k_4 Int) (n_4 Int)) Bool (and (.def_67 k_1 n_1 ak_4 i_3 ak_1 i_0 k_4 n_4) (.def_68 i_0)))
(define-fun .def_71 ((k_1 Int) (n_1 Int) (ak_4 Int) (i_3 Int) (ak_1 Int) (i_0 Int) (k_4 Int) (n_4 Int)) Bool (and (.def_69 k_1 n_1 ak_4 ak_1 i_3 i_0 k_4 n_4) (.def_70 n_1)))
(define-fun .def_44 ((i_3 Int) (n_4 Int)) Bool (not (.def_43 i_3 n_4)))
(define-fun .def_72 ((k_1 Int) (n_1 Int) (ak_4 Int) (ak_1 Int) (i_3 Int) (i_0 Int) (k_4 Int) (n_4 Int)) Bool (and (.def_44 i_3 n_4) (.def_71 k_1 n_1 ak_4 i_3 ak_1 i_0 k_4 n_4)))
(define-fun .def_73 ((k_1 Int) (n_1 Int) (ak_4 Int) (i_3 Int) (ak_1 Int) (i_0 Int) (k_4 Int) (n_4 Int)) Bool (and .def_46 (.def_72 k_1 n_1 ak_4 ak_1 i_3 i_0 k_4 n_4)))
(define-fun .def_96 ((k_1 Int) (n_1 Int) (ak_4 Int) (ak_1 Int) (i_3 Int) (i_0 Int) (k_4 Int) (n_4 Int)) Bool (or (.def_73 k_1 n_1 ak_4 i_3 ak_1 i_0 k_4 n_4) (.def_95 ak_4 i_3 k_4 n_4)))
(define-fun .def_41 ((n_2 Int)) Bool (= |.x{18}| n_2))
(define-fun .def_39 ((i_1 Int)) Bool (= |.x{19}| i_1))
(define-fun .def_37 ((i_1 Int)) Bool (= |.x{20}| i_1))
(define-fun .def_35 () Bool (= |.y{2}| 42))
(define-fun .def_32 ((ak_2 Int) (ak_4 Int)) Bool (= (.def_14 ak_4) ak_2))
(define-fun .def_29 ((k_2 Int) (k_4 Int)) Bool (= (.def_12 k_4) k_2))
(define-fun .def_25 ((i_3 Int) (i_1 Int)) Bool (= (.def_10 i_3) i_1))
(define-fun .def_21 ((n_2 Int) (n_4 Int)) Bool (= (.def_8 n_4) n_2))
(define-fun .def_23 ((n_2 Int) (n_4 Int)) Bool (and (.def_21 n_2 n_4) .def_22))
(define-fun .def_26 ((n_2 Int) (i_3 Int) (i_1 Int) (n_4 Int)) Bool (and (.def_23 n_2 n_4) (.def_25 i_3 i_1)))
(define-fun .def_27 ((n_2 Int) (i_3 Int) (i_1 Int) (n_4 Int)) Bool (and .def_16 (.def_26 n_2 i_3 i_1 n_4)))
(define-fun .def_30 ((n_2 Int) (k_2 Int) (i_3 Int) (k_4 Int) (i_1 Int) (n_4 Int)) Bool (and (.def_27 n_2 i_3 i_1 n_4) (.def_29 k_2 k_4)))
(define-fun .def_33 ((ak_2 Int) (n_2 Int) (ak_4 Int) (k_2 Int) (i_3 Int) (k_4 Int) (i_1 Int) (n_4 Int)) Bool (and (.def_30 n_2 k_2 i_3 k_4 i_1 n_4) (.def_32 ak_2 ak_4)))
(define-fun .def_36 ((ak_2 Int) (n_2 Int) (ak_4 Int) (k_2 Int) (i_3 Int) (k_4 Int) (i_1 Int) (n_4 Int)) Bool (and (.def_33 ak_2 n_2 ak_4 k_2 i_3 k_4 i_1 n_4) .def_35))
(define-fun .def_38 ((ak_2 Int) (n_2 Int) (ak_4 Int) (k_2 Int) (i_3 Int) (k_4 Int) (i_1 Int) (n_4 Int)) Bool (and (.def_36 ak_2 n_2 ak_4 k_2 i_3 k_4 i_1 n_4) (.def_37 i_1)))
(define-fun .def_40 ((ak_2 Int) (n_2 Int) (ak_4 Int) (k_2 Int) (i_3 Int) (k_4 Int) (i_1 Int) (n_4 Int)) Bool (and (.def_38 ak_2 n_2 ak_4 k_2 i_3 k_4 i_1 n_4) (.def_39 i_1)))
(define-fun .def_42 ((ak_2 Int) (n_2 Int) (ak_4 Int) (k_2 Int) (i_3 Int) (k_4 Int) (i_1 Int) (n_4 Int)) Bool (and (.def_40 ak_2 n_2 ak_4 k_2 i_3 k_4 i_1 n_4) (.def_41 n_2)))
(define-fun .def_45 ((ak_2 Int) (n_2 Int) (ak_4 Int) (k_2 Int) (i_3 Int) (k_4 Int) (i_1 Int) (n_4 Int)) Bool (and (.def_42 ak_2 n_2 ak_4 k_2 i_3 k_4 i_1 n_4) (.def_44 i_3 n_4)))
(define-fun .def_47 ((ak_2 Int) (n_2 Int) (ak_4 Int) (k_2 Int) (i_3 Int) (k_4 Int) (i_1 Int) (n_4 Int)) Bool (and (.def_45 ak_2 n_2 ak_4 k_2 i_3 k_4 i_1 n_4) .def_46))
(define-fun .def_97 ((k_1 Int) (ak_2 Int) (n_2 Int) (n_1 Int) (ak_4 Int) (k_2 Int) (ak_1 Int) (i_3 Int) (i_0 Int) (k_4 Int) (i_1 Int) (n_4 Int)) Bool (or (.def_47 ak_2 n_2 ak_4 k_2 i_3 k_4 i_1 n_4) (.def_96 k_1 n_1 ak_4 ak_1 i_3 i_0 k_4 n_4)))
(define-fun .def_99 ((k_1 Int) (ak_2 Int) (n_2 Int) (n_1 Int) (ak_4 Int) (k_2 Int) (i_3 Int) (ak_1 Int) (i_0 Int) (k_4 Int) (i_1 Int) (n_4 Int)) Bool (! (and (.def_97 k_1 ak_2 n_2 n_1 ak_4 k_2 ak_1 i_3 i_0 k_4 i_1 n_4) .def_98) :trans true))
(define-fun .def_99 ((k_1 Int) (ak_2 Int) (n_2 Int) (n_1 Int) (ak_4 Int) (k_2 Int) (i_3 Int) (ak_1 Int) (i_0 Int) (k_4 Int) (i_1 Int) (n_4 Int)) Bool (.def_99 k_1 ak_2 n_2 n_1 ak_4 k_2 i_3 ak_1 i_0 k_4 i_1 n_4))
(define-fun .def_8 ((n_4 Int)) Int (.def_8 n_4))
(define-fun .def_10 ((i_3 Int)) Int (.def_10 i_3))
(define-fun .def_12 ((k_4 Int)) Int (.def_12 k_4))
(define-fun .def_14 ((ak_4 Int)) Int (.def_14 ak_4))
(define-fun .def_114 () Bool (and .def_18 .def_74))
(define-fun .def_111 ((k_4 Int)) Bool (= .def_12 42))
(define-fun .def_112 ((k_4 Int)) Bool (not (.def_111 k_4)))
(define-fun .def_109 ((i_3 Int)) Bool (<= 0 .def_10))
(define-fun .def_110 ((i_3 Int) (n_4 Int)) Bool (and (.def_44 i_3 n_4) (.def_109 i_3)))
(define-fun .def_113 ((i_3 Int) (k_4 Int) (n_4 Int)) Bool (and (.def_110 i_3 n_4) (.def_112 k_4)))
(define-fun .def_115 ((i_3 Int) (k_4 Int) (n_4 Int)) Bool (and (.def_113 i_3 k_4 n_4) .def_114))
(define-fun .def_116 ((i_3 Int) (k_4 Int) (n_4 Int)) Bool (! (not (.def_115 i_3 k_4 n_4)) :invar-property 0))
(define-fun .def_116 ((i_3 Int) (k_4 Int) (n_4 Int)) Bool (.def_116 i_3 k_4 n_4))
(assert true)
